#######################################
### Exact MIP solver for the HHCRSP ###
#######################################
-- Instance file: new-instances/HHCRSP_300_60_71_1.2_C_RC.txt
-- Max threads: 4
-- Time limit: 999999 seconds
-- Use initial solution: No
Trivial flow violations prevented generating 1173868 variables.
Version identifier: 20.1.0.0 | 2020-11-10 | 9bedb6d68
CPXPARAM_Threads                                 4
CPXPARAM_TimeLimit                               999999
Parallel mode: deterministic, using up to 4 threads for concurrent optimization:
 * Starting dual Simplex on 1 thread...
 * Starting Barrier on 3 threads...
Tried aggregator 1 time.
LP Presolve eliminated 44358 rows and 8965 columns.
Reduced LP has 1141210 rows, 1083714 columns, and 25059817 nonzeros.
Presolve time = 28.17 sec. (5526.70 ticks)
Symmetry aggregator did 1806383 additional substitutions.

Iteration log . . .
Iteration:     1   Dual objective     =             0.000000
Iteration:  1381   Dual objective     =           376.000000

Dual crossover.
  Dual:  Fixing 1798 variables.
     1797 DMoves:  Infeasibility  2.47118992e-12  Objective  3.77000000e+02
        0 DMoves:  Infeasibility  1.31866046e-12  Objective  3.77000000e+02
  Dual:  Pushed 33, exchanged 1765.
  Primal:  Fixing 879 variables.
      878 PMoves:  Infeasibility  1.11022302e-16  Objective  3.77000000e+02
        0 PMoves:  Infeasibility  8.32667268e-16  Objective  3.77000000e+02
  Primal:  Pushed 744, exchanged 135.

Dual simplex solved model.


Solution status from MIP model:
-- Processing time: 48.038 sec.
-- Memory used: 990.183 MB
-- Best bound: inf
-- Obj value: 377
-- Gap: inf%
-- Total distance: 1131
-- Total tardiness: 0
-- Largest tardiness: 0
